c description: Random 3-CNF over 20 variables and 85 clauses
c generator: CNFgen (0.9.2)
c copyright: (C) 2012-2022 Massimo Lauria <massimo.lauria@uniroma1.it>
c url: https://massimolauria.net/cnfgen
c command line: cnfgen --output CNF_4.28/20_bit_85_255.cnf randkcnf 3 20 85
c
p cnf 20 85
-3 6 -11 0
-8 -10 17 0
4 9 18 0
-9 -10 14 0
-3 4 -16 0
-1 -3 17 0
12 -16 -20 0
4 5 -17 0
2 -8 17 0
8 10 -16 0
-1 -10 -16 0
-5 15 -20 0
2 5 11 0
2 14 17 0
11 12 18 0
7 14 -17 0
-7 11 -18 0
-2 9 -11 0
7 -13 14 0
-9 11 -18 0
-2 9 -12 0
-1 -15 -17 0
-12 -15 -20 0
-2 -5 -19 0
-7 9 -10 0
-4 -13 18 0
5 8 -11 0
-6 -18 20 0
-7 -10 -17 0
6 -8 12 0
1 6 17 0
6 -13 15 0
-4 -18 -20 0
6 17 20 0
-2 -10 -12 0
-10 15 -18 0
-12 19 20 0
-5 -6 -18 0
-5 16 -17 0
-3 -17 18 0
-5 8 -19 0
3 5 -13 0
8 -9 19 0
-1 10 11 0
3 12 18 0
1 7 -16 0
-1 -4 20 0
11 19 -20 0
7 -11 12 0
-3 9 -18 0
-5 14 15 0
-6 -9 13 0
6 7 -16 0
-12 16 -20 0
1 -7 -9 0
1 -6 14 0
4 6 7 0
2 -6 -12 0
3 4 -9 0
-1 -12 -14 0
-2 8 -11 0
5 7 -17 0
-3 -15 -19 0
-6 15 -20 0
6 -17 19 0
-2 -7 -17 0
-2 -12 -19 0
-1 -14 17 0
-7 -15 -20 0
-4 12 18 0
-8 -13 -18 0
-16 18 -19 0
4 8 -16 0
6 7 20 0
-1 4 9 0
-4 -9 10 0
10 13 -14 0
4 -6 -7 0
-1 -9 -12 0
6 9 14 0
-5 -6 8 0
-5 12 -17 0
-9 14 17 0
-3 7 17 0
-7 12 19 0
